NAME : jam20
COMMENT : Generated by Jaemin Kim (20211061)
TYPE : TSP
DIMENSION : 20
EDGE_WEIGHT_TYPE : EUC_2D
NODE_COORD_SECTION
1 150 50
2 162 111
3 208 69
4 182 126
5 245 119
6 190 150
7 245 180
8 182 173
9 208 230
10 162 188
11 150 250
12 137 188
13 91 230
14 117 173
15 54 180
16 110 150
17 54 119
18 117 126
19 91 69
20 137 111
EOF
